c FILE /home/rafael/Documents/HappySet/MIHS/inputs/happygen/output/graph_scale_free_k7_p0.2_v100_20241127_083853.txt
c SOURCE This is a scale-free graph formed for the happy graph colouring problem.
c DESCRIPTION It was generated using the problem generator of Rhyd Lewis
c
c GRAPH STATS
c Seed                             = 1734749762
c Number of Nodes                  = 100
c Number of colours k              = 7
c Number of pre-assignments        = 20
c Number of links per new node     = 5
c Density                          = 0.0979798
c 
c The degrees of nodes 1 to 100, respectively, are as follows 
c [34, 31, 27, 27, 25, 24, 24, 23, 22, 20, 20, 16, 16, 15, 15, 15, 15, 15, 14, 14, 14, 13, 12, 12, 11, 11, 
c  11, 10, 10, 10, 9, 9, 9, 8, 8, 8, 8, 8, 8, 8, 8, 8, 8, 8, 8, 8, 7, 7, 7, 7, 7, 
c  7, 7, 7, 7, 7, 7, 7, 6, 6, 6, 6, 6, 6, 6, 6, 6, 6, 6, 6, 6, 6, 6, 6, 6, 6, 
c  6, 5, 5, 5, 5, 5, 5, 5, 5, 5, 5, 5, 5, 5, 5, 5, 5, 5, 5, 5, 5, 5, 5, 5] 
c  
p edge 100 485 7
e 1 3
e 1 4
e 1 6
e 1 7
e 1 8
e 1 10
e 1 11
e 1 18
e 1 20
e 1 22
e 1 24
e 1 29
e 1 30
e 1 31
e 1 32
e 1 33
e 1 34
e 1 37
e 1 40
e 1 41
e 1 44
e 1 48
e 1 50
e 1 58
e 1 59
e 1 68
e 1 70
e 1 71
e 1 76
e 1 78
e 1 80
e 1 81
e 1 84
e 1 85
e 2 3
e 2 4
e 2 5
e 2 6
e 2 7
e 2 8
e 2 11
e 2 12
e 2 13
e 2 14
e 2 16
e 2 19
e 2 20
e 2 21
e 2 22
e 2 26
e 2 29
e 2 31
e 2 32
e 2 36
e 2 50
e 2 55
e 2 59
e 2 60
e 2 63
e 2 65
e 2 66
e 2 72
e 2 90
e 2 92
e 2 93
e 3 4
e 3 5
e 3 6
e 3 7
e 3 8
e 3 9
e 3 12
e 3 14
e 3 17
e 3 19
e 3 23
e 3 24
e 3 25
e 3 26
e 3 28
e 3 31
e 3 46
e 3 49
e 3 65
e 3 66
e 3 68
e 3 69
e 3 76
e 3 85
e 3 88
e 4 5
e 4 9
e 4 12
e 4 13
e 4 15
e 4 17
e 4 18
e 4 19
e 4 20
e 4 21
e 4 23
e 4 24
e 4 25
e 4 27
e 4 32
e 4 34
e 4 46
e 4 47
e 4 49
e 4 51
e 4 57
e 4 63
e 4 65
e 4 87
e 5 6
e 5 7
e 5 8
e 5 9
e 5 12
e 5 13
e 5 14
e 5 17
e 5 19
e 5 23
e 5 26
e 5 30
e 5 43
e 5 47
e 5 56
e 5 61
e 5 62
e 5 64
e 5 73
e 5 81
e 5 94
e 5 95
e 6 7
e 6 8
e 6 9
e 6 10
e 6 12
e 6 15
e 6 16
e 6 17
e 6 31
e 6 33
e 6 38
e 6 47
e 6 53
e 6 70
e 6 78
e 6 80
e 6 81
e 6 85
e 6 87
e 6 90
e 7 9
e 7 11
e 7 12
e 7 14
e 7 16
e 7 19
e 7 21
e 7 24
e 7 31
e 7 35
e 7 40
e 7 49
e 7 58
e 7 67
e 7 70
e 7 75
e 7 76
e 7 86
e 7 87
e 8 10
e 8 11
e 8 12
e 8 13
e 8 15
e 8 23
e 8 25
e 8 26
e 8 27
e 8 28
e 8 34
e 8 35
e 8 39
e 8 47
e 8 48
e 8 54
e 8 60
e 8 100
e 9 10
e 9 12
e 9 14
e 9 25
e 9 28
e 9 29
e 9 30
e 9 36
e 9 37
e 9 40
e 9 45
e 9 48
e 9 51
e 9 52
e 9 56
e 9 67
e 9 91
e 10 12
e 10 15
e 10 18
e 10 33
e 10 35
e 10 36
e 10 42
e 10 44
e 10 45
e 10 46
e 10 57
e 10 68
e 10 74
e 10 77
e 10 83
e 10 92
e 11 13
e 11 15
e 11 20
e 11 21
e 11 26
e 11 27
e 11 32
e 11 39
e 11 48
e 11 50
e 11 58
e 11 60
e 11 62
e 11 70
e 11 79
e 11 95
e 12 35
e 12 39
e 12 43
e 12 75
e 12 79
e 12 80
e 12 99
e 13 16
e 13 18
e 13 37
e 13 49
e 13 64
e 13 66
e 13 67
e 13 80
e 13 81
e 13 83
e 13 89
e 14 21
e 14 23
e 14 28
e 14 34
e 14 48
e 14 61
e 14 69
e 14 81
e 14 97
e 14 99
e 15 27
e 15 28
e 15 29
e 15 33
e 15 41
e 15 54
e 15 59
e 15 77
e 15 88
e 15 93
e 16 20
e 16 22
e 16 37
e 16 41
e 16 50
e 16 54
e 16 57
e 16 64
e 16 66
e 16 86
e 16 88
e 17 18
e 17 22
e 17 25
e 17 27
e 17 38
e 17 44
e 17 56
e 17 62
e 17 72
e 17 77
e 17 93
e 18 24
e 18 43
e 18 61
e 18 67
e 18 68
e 18 79
e 18 80
e 18 88
e 18 93
e 18 96
e 19 20
e 19 26
e 19 30
e 19 40
e 19 42
e 19 52
e 19 73
e 19 87
e 19 97
e 20 42
e 20 62
e 20 71
e 20 73
e 20 75
e 20 79
e 20 82
e 20 99
e 21 22
e 21 43
e 21 44
e 21 52
e 21 72
e 21 74
e 21 90
e 21 91
e 21 95
e 22 38
e 22 43
e 22 61
e 22 79
e 22 85
e 22 89
e 22 96
e 22 100
e 23 25
e 23 32
e 23 35
e 23 39
e 23 47
e 23 55
e 23 95
e 24 40
e 24 42
e 24 45
e 24 46
e 24 65
e 24 69
e 24 76
e 25 33
e 25 34
e 25 59
e 25 63
e 25 92
e 26 29
e 26 53
e 26 82
e 26 89
e 26 92
e 27 30
e 27 57
e 27 61
e 27 83
e 27 90
e 27 99
e 28 51
e 28 52
e 28 53
e 28 64
e 28 78
e 29 37
e 29 49
e 29 50
e 29 76
e 29 87
e 30 46
e 30 51
e 30 55
e 30 56
e 30 58
e 31 39
e 31 44
e 31 60
e 31 73
e 32 60
e 32 63
e 32 75
e 32 96
e 33 41
e 33 45
e 33 78
e 33 91
e 34 62
e 34 74
e 34 83
e 35 36
e 35 59
e 35 98
e 36 49
e 36 65
e 36 75
e 36 84
e 37 38
e 37 41
e 37 71
e 38 60
e 38 67
e 38 73
e 38 91
e 39 53
e 39 63
e 39 90
e 40 54
e 40 66
e 40 71
e 41 54
e 41 69
e 41 97
e 42 61
e 42 94
e 42 96
e 42 98
e 43 52
e 43 74
e 43 96
e 44 55
e 44 68
e 44 84
e 45 54
e 45 56
e 45 85
e 45 89
e 46 70
e 46 74
e 46 100
e 47 58
e 47 82
e 48 82
e 48 83
e 49 82
e 50 64
e 50 86
e 51 55
e 51 62
e 51 78
e 52 53
e 52 95
e 53 71
e 53 72
e 54 84
e 55 98
e 55 99
e 56 89
e 56 98
e 57 72
e 57 77
e 57 94
e 58 77
e 58 100
e 59 98
e 63 93
e 64 100
e 65 86
e 66 84
e 67 69
e 68 86
e 69 97
e 70 91
e 71 72
e 73 94
e 74 94
e 75 92
e 76 88
e 77 97
n 10 1
n 43 7
n 48 4
n 56 2
n 68 1
n 71 3
n 72 3
n 76 3
n 80 4
n 81 6
n 82 4
n 85 3
n 86 1
n 89 2
n 90 6
n 93 1
n 95 5
n 97 1
n 99 7
n 100 6
